1 74 2 4 15 21 22 23 39 40 41 56 57 67 72 73 75
2 82 7 8 18 27 31 36 45 46 47 48 52 83 88
3 80 3 12 24 25 26 28 29 54 55 68 76 77 79
4 59 5 6 13 14 16 17 37 38 42 43 44 53 58 60 61 84 85 86 87 89 91 92 93 94 95 96 97 98 99 100 101
5 51 1 9 20 30 33 34 35 50 65 66 69 70 71 78 81
6 11 10 19 32 49 62 63 64 90
